c 1 __Root__
c 2 CONFIG_PREFIX
c 3 CONFIG_DEFAULT_LOG_LEVEL_CRITICAL
c 4 CONFIG_LOG
c 5 CONFIG_PLATFORM_RIOTOS
c 6 CONFIG_PLATFORM_DUMMY
c 7 CONFIG_PLATFORM_LINUX_MICRO
c 8 CONFIG_FLOW
c 9 CONFIG_FLOW_NODE_TYPE_COLOR
c 10 CONFIG_FLOW_NODE_TYPE_BYTE
c 11 CONFIG_SOL_PLATFORM_LINUX
c 12 CONFIG_PLATFORM_SYSTEMD
c 13 CONFIG_INSPECTOR
c 14 CONFIG_FBP_TO_DOT
c 15 CONFIG_RESOLVER_CONFFILE
c 16 CONFIG_FLOW_NODE_TYPE_EVDEV
c 17 CONFIG_HAVE_DECL_STRNDUPA
c 18 CONFIG_FLOW_NODE_TYPE_OIC
c 19 CONFIG_KDBUS
c 20 CONFIG_TEST_MAINLOOP_THREADS_SOL_RUN
c 21 CONFIG_MAINLOOP_POSIX
c 22 CONFIG_HAVE_KDBUS
c 23 CONFIG_FLOW_NODE_TYPE_UDEV
c 24 CONFIG_USE_UDEV
c 25 CONFIG_FLOW_NODE_TYPE_CONVERTER
c 26 CONFIG_PTHREAD
c 27 CONFIG_USE_GLIB
c 28 CONFIG_FLOW_NODE_TYPE_PLATFORM
c 29 CONFIG_FLOW_NODE_TYPE_ACCELEROMETER
c 30 CONFIG_FLOW_NODE_TYPE_PIEZO_SPEAKER
c 31 CONFIG_DEFAULT_LOG_LEVEL_INFO
c 32 CONFIG_MAINLOOP_GLIB
c 33 CONFIG_FLOW_NODE_TYPE_FS
c 34 CONFIG_FBP_GENERATOR
c 35 CONFIG_FLOW_NODE_TYPE_FILE
c 36 CONFIG_COAP
c 37 CONFIG_LINUX_MICRO
c 38 CONFIG_LINUX_MICRO_RC_D
c 39 CONFIG_USE_CHECK
c 40 CONFIG_HAVE_GTK
c 41 CONFIG_FLOW_NODE_TYPE_GTK
c 42 CONFIG_FLOW_NODE_TYPE_CONSTANT
c 43 CONFIG_HAVE_SYSTEMD
c 44 CONFIG_HAVE_PTHREAD_H
c 45 CONFIG_DEFAULT_LOG_LEVEL_ERROR
c 46 CONFIG_FLOW_NODE_TYPE_FILTER_REPEATED
c 47 CONFIG_INTERNAL_SHARED
c 48 CONFIG_FLOW_NODE_TYPE_AIO
c 49 CONFIG_FLOW_NODE_TYPE_HUB
c 50 CONFIG_DEFAULT_LOG_LEVEL_DEBUG
c 51 CONFIG_DEFAULT_LOG_LEVEL_WARNING
c 52 CONFIG_FLOW_NODE_TYPE_WALLCLOCK
c 53 CONFIG_FLOW_NODE_TYPE_FLOAT
c 54 CONFIG_MAINLOOP_RIOTOS
c 55 CONFIG_FLOW_NODE_TYPE_BOOLEAN
c 56 CONFIG_HAVE_DLFCN_H
c 57 CONFIG_USE_SYSTEMD
c 58 CONFIG_FBP_RUNNER
c 59 CONFIG_HAVE_DECL_IFLA_INET6_ADDR_GEN_MODE
c 60 CONFIG_HAVE_RIOTOS
c 61 CONFIG_LINUX_MICRO_FSTAB
c 62 CONFIG_FLOW_NODE_TYPE_PROCESS
c 63 CONFIG_FLOW_NODE_TYPE_STRING
c 64 CONFIG_TEST_MAINLOOP_THREADS
c 65 CONFIG_TEST_COAP
c 66 CONFIG_HAVE_ISATTY
c 67 CONFIG_FLOW_NODE_TYPES
c 68 CONFIG_HAVE_PPOLL
c 69 CONFIG_CORE
c 70 CONFIG_FLOW_NODE_TYPE_APP
c 71 CONFIG_LINUX_MICRO_DBUS
c 72 CONFIG_FLOW_NODE_TYPE_GYROSCOPE
c 73 CONFIG_FLOW_NODE_TYPE_UNIX_SOCKET
c 74 CONFIG_FLOW_NODE_TYPE_TIMER
c 75 CONFIG_USE_GTK
c 76 CONFIG_FLOW_NODE_TYPE_CALAMARI
c 77 CONFIG_FLOW_NODE_TYPE_INT
c 78 CONFIG_HAVE_GLIB
c 79 CONFIG_MODULES
c 80 CONFIG_ENABLE_DYNAMIC_MODULES
c 81 CONFIG_FLOW_NODE_TYPE_GPIO
c 82 CONFIG_LINUX_MICRO_WATCHDOG
c 83 CONFIG_HAVE_ACCEPT4
c 84 CONFIG_FLOW_NODE_TYPE_NETWORK
c 85 CONFIG_FLOW_NODE_TYPE_KEYBOARD
c 86 CONFIG_FLOW_NODE_TYPE_PWM
c 87 CONFIG_FLOW_NODE_TYPE_SERVO_MOTOR
c 88 CONFIG_LINUX_MICRO_CONSOLE
c 89 CONFIG_LINUX_MICRO_NETWORK_UP
c 90 CONFIG_FLOW_NODE_TYPE_TEST
c 91 CONFIG_HAVE_UDEV
c 92 CONFIG_FLOW_NODE_TYPE_GROVE
c 93 CONFIG_FLOW_NODE_TYPE_TRIGONOMETRY
c 94 CONFIG_FLOW_NODE_TYPE_CONSOLE
c 95 CONFIG_LINUX_MICRO_SYSCTL
c 96 CONFIG_LINUX_MICRO_BLUETOOTH
c 97 CONFIG_HAVE_CHECK
c 98 CONFIG_LINUX_MICRO_HOSTNAME
c 99 CONFIG_LINUX_MICRO_LOCALE
c 100 CONFIG_FLOW_NODE_TYPE_RANDOM
c 101 CONFIG_SOCKET_LINUX
p cnf 101 186
2 0
-3 4 0
-6 -5 0
-7 -5 0
8 -9 0
8 -10 0
6 7 12 -11 0
-14 13 15 0
8 -16 0
-17 0
8 -18 0
-19 12 11 0
21 -20 0
22 -19 12 0
-23 24 0
-14 15 11 0
8 -23 0
8 -25 0
26 -20 0
-15 27 0
8 -28 0
8 -29 11 0
8 -30 0
-3 -31 0
-32 -21 0
8 -33 0
-34 13 15 0
8 -35 26 0
-35 26 0
36 -18 11 0
37 -38 0
39 0
8 -41 40 0
8 -29 0
8 -42 0
-22 -43 19 -12 -11 0
44 -26 0
-32 11 0
-45 -31 0
8 -46 0
47 0
-34 13 0
8 -48 0
-19 27 0
-37 7 0
8 -49 0
-3 -50 0
-34 8 0
-50 -51 0
8 -52 0
8 -53 0
32 21 54 -11 0
8 -55 0
56 0
4 12 -57 0
-3 -45 0
-12 57 0
-40 0
-58 8 11 0
-58 11 0
59 0
-54 5 0
-7 11 0
23 -24 0
60 -54 0
37 -61 0
-45 -51 0
-31 -51 0
-62 11 0
-31 4 0
8 -63 0
21 -64 0
36 -65 0
19 -12 11 0
44 -26 11 0
-43 0
66 0
-67 13 0
-14 11 0
-58 13 0
-14 13 11 0
8 -41 0
36 -18 0
-50 -45 0
68 0
-26 11 0
69 0
-34 8 15 0
8 -70 0
37 -71 0
-72 11 0
8 -73 0
8 -72 11 0
8 -74 0
-58 15 0
-41 75 0
-58 8 13 0
44 0
8 -76 0
8 -62 0
8 -77 0
78 -32 0
-80 79 0
-22 0
8 -81 0
37 -82 0
83 0
-4 57 0
-3 -51 0
3 50 45 31 51 -4 0
8 -84 0
19 -12 0
-34 11 0
8 -85 0
8 -86 0
-34 8 11 0
-21 -54 0
-5 -12 0
-50 -31 0
-67 15 11 0
-50 4 0
-34 8 13 0
8 -87 0
-32 27 0
8 -72 0
21 26 -64 0
-58 15 11 0
-58 8 0
-6 -12 0
8 -76 81 0
-78 32 21 54 -11 0
-51 4 0
-14 15 0
-7 -12 0
80 -79 0
37 -88 0
-67 13 15 0
19 32 15 -27 0
-14 13 0
-67 11 0
-67 13 11 0
43 19 -12 0
26 -64 0
41 -75 0
-58 13 11 0
-41 40 0
-29 11 0
43 -12 0
37 -89 0
8 -90 0
-34 13 11 0
-6 11 0
-32 -54 0
-91 0
-34 15 11 0
8 -92 0
8 -93 0
8 -94 0
78 0
37 -95 0
-18 11 0
21 26 -20 0
8 -18 11 0
37 -96 0
-97 0
37 -98 0
-45 4 0
37 -99 0
-76 81 0
36 8 -18 0
8 -100 0
-12 11 0
8 -62 11 0
-21 11 0
8 -35 0
-34 15 0
22 19 -12 0
-60 0
-58 13 15 0
-67 15 0
-101 11 0
6 7 5 12 0
-6 -7 0
-58 8 15 0
43 -19 12 0
-60 32 21 54 -5 0
